32	0

0	2	2	3
4	2	4	5
8	2	4	5
6	1	6
10	2	7	8
4	2	7	8
7	2	9	11
5	2	9	11
7	2	10	13
8	1	12
9	2	12	13
2	2	14	15
8	2	14	15
4	1	16
6	1	16
8	2	17	18
5	1	19
10	2	20	21
6	2	20	21
8	2	23	24
6	2	22	24
3	1	23
3	3	25	26	28
4	3	25	26	28
7	1	27
7	1	27
3	1	29
10	1	29
7	2	30	31
8	1	32
10	1	32
0	0
